NAME : marvin/utils/output1650528659.392195.atsp.1_1453.tour
COMMENT : Cost = 1_1453
COMMENT : Found by LKH-3 [Keld Helsgaun] Thu Apr 21 17:11:15 2022
TYPE : TOUR
DIMENSION : 101
TOUR_SECTION
1
97
66
12
89
43
21
72
15
88
55
40
48
19
68
26
67
77
39
57
100
84
11
60
50
38
71
53
64
42
87
62
65
23
94
56
22
44
92
93
52
98
86
46
78
24
79
28
41
61
49
3
18
75
74
2
34
17
82
8
59
99
45
63
54
27
4
14
58
85
47
36
33
9
13
96
32
81
29
25
20
101
80
37
35
83
31
69
51
70
30
90
16
73
6
5
95
7
10
91
76
-1
EOF
